20	5
0	4	3	4	1	2
1	1	7
2	4	12	5	10	19
3	1	8
4	2	10	5
5	1	21
6	1	11
7	4	17	12	16	9
8	3	15	10	20
9	4	19	20	18	14
10	1	6
11	1	21
12	1	21
13	1	21
14	1	21
15	1	21
16	1	21
17	1	21
18	1	21
19	1	21
20	1	21
21	0
0	0	0	0	0	0	0
1	8	3	4	2	3	1
2	6	3	5	3	2	3
3	1	2	1	2	5	4
4	4	2	1	5	2	3
5	7	4	2	4	2	4
6	6	2	2	3	3	2
7	6	5	5	5	4	4
8	3	4	2	1	2	3
9	4	3	4	1	2	4
10	8	4	4	1	5	2
11	3	5	5	5	1	3
12	4	3	4	5	2	3
13	6	5	5	1	2	3
14	3	3	5	2	4	4
15	10	3	4	4	5	4
16	2	2	5	5	2	3
17	2	1	2	2	2	2
18	1	4	3	5	3	3
19	3	4	2	5	5	5
20	7	2	4	2	2	4
21	0	0	0	0	0	0
7	7	6	6	7
